File : Instances/p63
Use 143 s

26045

0 0 1 0 1 0 1 0 0 0 0 0 1 1 0 0 1 0 1 0 1 0 0 1 1 0 0 0 1 0 
18 6 2 24 2 12 16 28 18 28 4 28 13 13 28 18 13 20 16 24 18 16 23 24 23 18 24 6 4 2 6 4 4 16 28 6 20 20 24 16 18 20 6 4 13 4 13 2 6 20 24 16 2 16 20 6 18 20 18 18 4 2 18 20 13 12 23 28 6 12 18 12 6 20 23 23 20 23 20 16 23 23 4 12 4 13 6 2 24 18 28 6 12 12 2 13 28 6 2 28 28 16 12 18 4 24 4 24 16 13 6 4 18 12 12 20 28 18 28 13 20 12 28 6 4 16 2 6 4 28 28 24 12 20 23 20 13 13 28 20 12 24 12 12 12 2 24 16 18 12 24 28 23 28 13 28 2 16 13 13 13 24 23 24 23 24 23 4 13 2 23 20 28 20 4 2 24 20 4 23 2 16 2 6 12 20 28 23 24 2 2 2 6 4 18 12 18 2 23 6 
